opti relax conjugate
title

end
vectors  angs
  -9.05538514    0.00000000    0.00000000
  -0.00000000    6.00000000    0.00000000
   0.00000000    0.00000000   14.00000000
1 1 1 1 1 1
cartesian  angs
Si    4.03075070    1.25000000   -2.31906205  0.0  1.0  1 1 1
Si    3.92031918    2.25000000   -1.32517831  0.0  1.0  1 1 1
Si    4.47247681    1.75000000   -1.76690442  0.0  1.0  1 1 1
Si    4.36204528    2.75000000   -0.77302068  0.0  1.0  1 1 1
Si    3.03686697    2.25000000   -2.42949357  0.0  1.0  1 1 1
Si    3.58902460    1.75000000   -2.87121968  0.0  1.0  1 1 1
Si    3.47859307    2.75000000   -1.87733594  0.0  1.0  1 1 1
Si    2.59514086    2.75000000   -2.98165120  0.0  1.0  1 1 1
Si    4.03075070   -0.75000000   -2.31906205  0.0  1.0  1 1 1
Si    3.92031918    0.25000000   -1.32517831  0.0  1.0  1 1 1
Si    4.47247681   -0.25000000   -1.76690442  0.0  1.0  1 1 1
Si    3.80988765    1.25000000   -0.33129458  0.0  1.0  1 1 1
Si    4.36204528    0.75000000   -0.77302068  0.0  1.0  1 1 1
Si    3.69945612    2.25000000    0.66258916  0.0  1.0  1 1 1
Si    4.25161375    1.75000000    0.22086305  0.0  1.0  1 1 1
Si    4.14118223    2.75000000    1.21474679  0.0  1.0  1 1 1
Si    3.03686697    0.25000000   -2.42949357  0.0  1.0  1 1 1
Si    3.58902460   -0.25000000   -2.87121968  0.0  1.0  1 1 1
Si    2.92643544    1.25000000   -1.43560984  0.0  1.0  1 1 1
Si    3.47859307    0.75000000   -1.87733594  0.0  1.0  1 1 1
Si    2.81600391    2.25000000   -0.44172610  0.0  1.0  1 1 1
Si    3.36816155    1.75000000   -0.88345221  0.0  1.0  1 1 1
Si    3.25773002    2.75000000    0.11043153  0.0  1.0  1 1 1
Si    2.04298323    1.25000000   -2.53992510  0.0  1.0  1 1 1
Si    2.59514086    0.75000000   -2.98165120  0.0  1.0  1 1 1
Si    1.93255171    2.25000000   -1.54604137  0.0  1.0  1 1 1
Si    2.48470934    1.75000000   -1.98776747  0.0  1.0  1 1 1
Si    2.37427781    2.75000000   -0.99388373  0.0  1.0  1 1 1
Si    1.04909950    2.25000000   -2.65035663  0.0  1.0  1 1 1
Si    1.49082560    2.75000000   -2.09819900  0.0  1.0  1 1 1
Si    4.47247681    1.25000000    2.76078815  0.0  1.0  1 1 1
Si    4.03075070   -2.75000000   -2.31906205  0.0  1.0  1 1 1
Si    3.92031918   -1.75000000   -1.32517831  0.0  1.0  1 1 1
Si    4.47247681   -2.25000000   -1.76690442  0.0  1.0  1 1 1
Si    3.80988765   -0.75000000   -0.33129458  0.0  1.0  1 1 1
Si    4.36204528   -1.25000000   -0.77302068  0.0  1.0  1 1 1
Si    3.69945612    0.25000000    0.66258916  0.0  1.0  1 1 1
Si    4.25161375   -0.25000000    0.22086305  0.0  1.0  1 1 1
Si    3.58902460    1.25000000    1.65647289  0.0  1.0  1 1 1
Si    4.14118223    0.75000000    1.21474679  0.0  1.0  1 1 1
Si    3.47859307    2.25000000    2.65035663  0.0  1.0  1 1 1
Si    4.03075070    1.75000000    2.20863052  0.0  1.0  1 1 1
Si    3.03686697   -1.75000000   -2.42949357  0.0  1.0  1 1 1
Si    3.58902460   -2.25000000   -2.87121968  0.0  1.0  1 1 1
Si    2.92643544   -0.75000000   -1.43560984  0.0  1.0  1 1 1
Si    3.47859307   -1.25000000   -1.87733594  0.0  1.0  1 1 1
Si    2.81600391    0.25000000   -0.44172610  0.0  1.0  1 1 1
Si    3.36816155   -0.25000000   -0.88345221  0.0  1.0  1 1 1
Si    2.70557239    1.25000000    0.55215763  0.0  1.0  1 1 1
Si    3.25773002    0.75000000    0.11043153  0.0  1.0  1 1 1
Si    2.59514086    2.25000000    1.54604137  0.0  1.0  1 1 1
Si    3.14729849    1.75000000    1.10431526  0.0  1.0  1 1 1
Si    3.03686697    2.75000000    2.09819900  0.0  1.0  1 1 1
Si    2.04298323   -0.75000000   -2.53992510  0.0  1.0  1 1 1
Si    2.59514086   -1.25000000   -2.98165120  0.0  1.0  1 1 1
Si    1.93255171    0.25000000   -1.54604137  0.0  1.0  1 1 1
Si    2.48470934   -0.25000000   -1.98776747  0.0  1.0  1 1 1
Si    1.82212018    1.25000000   -0.55215763  0.0  1.0  1 1 1
Si    2.37427781    0.75000000   -0.99388373  0.0  1.0  1 1 1
Si    1.71168865    2.25000000    0.44172610  0.0  1.0  1 1 1
Si    2.26384628    1.75000000    0.00000000  0.0  1.0  1 1 1
Si    2.15341476    2.75000000    0.99388373  0.0  1.0  1 1 1
Si    1.04909950    0.25000000   -2.65035663  0.0  1.0  1 1 1
Si    0.93866797    1.25000000   -1.65647289  0.0  1.0  1 1 1
Si    1.49082560    0.75000000   -2.09819900  0.0  1.0  1 1 1
Si    0.82823645    2.25000000   -0.66258916  0.0  1.0  1 1 1
Si    1.38039408    1.75000000   -1.10431526  0.0  1.0  1 1 1
Si    1.26996255    2.75000000   -0.11043153  0.0  1.0  1 1 1
Si    0.05521576    1.25000000   -2.76078815  0.0  1.0  1 1 1
Si   -0.05521576    2.25000000   -1.76690442  0.0  1.0  1 1 1
Si    0.49694187    1.75000000   -2.20863052  0.0  1.0  1 1 1
Si    0.38651034    2.75000000   -1.21474679  0.0  1.0  1 1 1
Si   -0.93866797    2.25000000   -2.87121968  0.0  1.0  1 1 1
Si   -0.49694187    2.75000000   -2.31906205  0.0  1.0  1 1 1
Si    4.47247681   -0.75000000    2.76078815  0.0  1.0  1 1 1
Si    3.80988765   -2.75000000   -0.33129458  0.0  1.0  1 1 1
Si    3.69945612   -1.75000000    0.66258916  0.0  1.0  1 1 1
Si    4.25161375   -2.25000000    0.22086305  0.0  1.0  1 1 1
Si    3.58902460   -0.75000000    1.65647289  0.0  1.0  1 1 1
Si    4.14118223   -1.25000000    1.21474679  0.0  1.0  1 1 1
Si    3.47859307    0.25000000    2.65035663  0.0  1.0  1 1 1
Si    4.03075070   -0.25000000    2.20863052  0.0  1.0  1 1 1
Si    2.92643544   -2.75000000   -1.43560984  0.0  1.0  1 1 1
Si    2.81600391   -1.75000000   -0.44172610  0.0  1.0  1 1 1
Si    3.36816155   -2.25000000   -0.88345221  0.0  1.0  1 1 1
Si    2.70557239   -0.75000000    0.55215763  0.0  1.0  1 1 1
Si    3.25773002   -1.25000000    0.11043153  0.0  1.0  1 1 1
Si    2.59514086    0.25000000    1.54604137  0.0  1.0  1 1 1
Si    3.14729849   -0.25000000    1.10431526  0.0  1.0  1 1 1
Si    2.48470934    1.25000000    2.53992510  0.0  1.0  1 1 1
Si    3.03686697    0.75000000    2.09819900  0.0  1.0  1 1 1
Si    2.04298323   -2.75000000   -2.53992510  0.0  1.0  1 1 1
Si    1.93255171   -1.75000000   -1.54604137  0.0  1.0  1 1 1
Si    2.48470934   -2.25000000   -1.98776747  0.0  1.0  1 1 1
Si    1.82212018   -0.75000000   -0.55215763  0.0  1.0  1 1 1
Si    2.37427781   -1.25000000   -0.99388373  0.0  1.0  1 1 1
Si    1.71168865    0.25000000    0.44172610  0.0  1.0  1 1 1
Si    2.26384628   -0.25000000    0.00000000  0.0  1.0  1 1 1
Si    1.60125713    1.25000000    1.43560984  0.0  1.0  1 1 1
Si    2.15341476    0.75000000    0.99388373  0.0  1.0  1 1 1
Si    1.49082560    2.25000000    2.42949357  0.0  1.0  1 1 1
Si    2.04298323    1.75000000    1.98776747  0.0  1.0  1 1 1
Si    1.93255171    2.75000000    2.98165120  0.0  1.0  1 1 1
Si    1.04909950   -1.75000000   -2.65035663  0.0  1.0  1 1 1
Si    0.93866797   -0.75000000   -1.65647289  0.0  1.0  1 1 1
Si    1.49082560   -1.25000000   -2.09819900  0.0  1.0  1 1 1
Si    0.82823645    0.25000000   -0.66258916  0.0  1.0  1 1 1
Si    1.38039408   -0.25000000   -1.10431526  0.0  1.0  1 1 1
Si    0.71780492    1.25000000    0.33129458  0.0  1.0  1 1 1
Si    1.26996255    0.75000000   -0.11043153  0.0  1.0  1 1 1
Si    0.60737339    2.25000000    1.32517831  0.0  1.0  1 1 1
Si    1.15953102    1.75000000    0.88345221  0.0  1.0  1 1 1
Si    1.04909950    2.75000000    1.87733594  0.0  1.0  1 1 1
Si    0.05521576   -0.75000000   -2.76078815  0.0  1.0  1 1 1
Si   -0.05521576    0.25000000   -1.76690442  0.0  1.0  1 1 1
Si    0.49694187   -0.25000000   -2.20863052  0.0  1.0  1 1 1
Si   -0.16564729    1.25000000   -0.77302068  0.0  1.0  1 1 1
Si    0.38651034    0.75000000   -1.21474679  0.0  1.0  1 1 1
Si   -0.27607882    2.25000000    0.22086305  0.0  1.0  1 1 1
Si    0.27607882    1.75000000   -0.22086305  0.0  1.0  1 1 1
Si    0.16564729    2.75000000    0.77302068  0.0  1.0  1 1 1
Si   -0.93866797    0.25000000   -2.87121968  0.0  1.0  1 1 1
Si   -1.04909950    1.25000000   -1.87733594  0.0  1.0  1 1 1
Si   -0.49694187    0.75000000   -2.31906205  0.0  1.0  1 1 1
Si   -1.15953102    2.25000000   -0.88345221  0.0  1.0  1 1 1
Si   -0.60737339    1.75000000   -1.32517831  0.0  1.0  1 1 1
Si   -0.71780492    2.75000000   -0.33129458  0.0  1.0  1 1 1
Si   -1.93255171    1.25000000   -2.98165120  0.0  1.0  1 1 1
Si   -2.04298323    2.25000000   -1.98776747  0.0  1.0  1 1 1
Si   -1.49082560    1.75000000   -2.42949357  0.0  1.0  1 1 1
Si   -1.60125713    2.75000000   -1.43560984  0.0  1.0  1 1 1
Si   -2.48470934    2.75000000   -2.53992510  0.0  1.0  1 1 1
Si    4.47247681   -2.75000000    2.76078815  0.0  1.0  1 1 1
Si    3.58902460   -2.75000000    1.65647289  0.0  1.0  1 1 1
Si    3.47859307   -1.75000000    2.65035663  0.0  1.0  1 1 1
Si    4.03075070   -2.25000000    2.20863052  0.0  1.0  1 1 1
Si    2.70557239   -2.75000000    0.55215763  0.0  1.0  1 1 1
Si    2.59514086   -1.75000000    1.54604137  0.0  1.0  1 1 1
Si    3.14729849   -2.25000000    1.10431526  0.0  1.0  1 1 1
Si    2.48470934   -0.75000000    2.53992510  0.0  1.0  1 1 1
Si    3.03686697   -1.25000000    2.09819900  0.0  1.0  1 1 1
Si    1.82212018   -2.75000000   -0.55215763  0.0  1.0  1 1 1
Si    1.71168865   -1.75000000    0.44172610  0.0  1.0  1 1 1
Si    2.26384628   -2.25000000    0.00000000  0.0  1.0  1 1 1
Si    1.60125713   -0.75000000    1.43560984  0.0  1.0  1 1 1
Si    2.15341476   -1.25000000    0.99388373  0.0  1.0  1 1 1
Si    1.49082560    0.25000000    2.42949357  0.0  1.0  1 1 1
Si    2.04298323   -0.25000000    1.98776747  0.0  1.0  1 1 1
Si    1.93255171    0.75000000    2.98165120  0.0  1.0  1 1 1
Si    0.93866797   -2.75000000   -1.65647289  0.0  1.0  1 1 1
Si    0.82823645   -1.75000000   -0.66258916  0.0  1.0  1 1 1
Si    1.38039408   -2.25000000   -1.10431526  0.0  1.0  1 1 1
Si    0.71780492   -0.75000000    0.33129458  0.0  1.0  1 1 1
Si    1.26996255   -1.25000000   -0.11043153  0.0  1.0  1 1 1
Si    0.60737339    0.25000000    1.32517831  0.0  1.0  1 1 1
Si    1.15953102   -0.25000000    0.88345221  0.0  1.0  1 1 1
Si    0.49694187    1.25000000    2.31906205  0.0  1.0  1 1 1
Si    1.04909950    0.75000000    1.87733594  0.0  1.0  1 1 1
Si    0.93866797    1.75000000    2.87121968  0.0  1.0  1 1 1
Si    0.05521576   -2.75000000   -2.76078815  0.0  1.0  1 1 1
Si   -0.05521576   -1.75000000   -1.76690442  0.0  1.0  1 1 1
Si    0.49694187   -2.25000000   -2.20863052  0.0  1.0  1 1 1
Si   -0.16564729   -0.75000000   -0.77302068  0.0  1.0  1 1 1
Si    0.38651034   -1.25000000   -1.21474679  0.0  1.0  1 1 1
Si   -0.27607882    0.25000000    0.22086305  0.0  1.0  1 1 1
Si    0.27607882   -0.25000000   -0.22086305  0.0  1.0  1 1 1
Si   -0.38651034    1.25000000    1.21474679  0.0  1.0  1 1 1
Si    0.16564729    0.75000000    0.77302068  0.0  1.0  1 1 1
Si   -0.49694187    2.25000000    2.20863052  0.0  1.0  1 1 1
Si    0.05521576    1.75000000    1.76690442  0.0  1.0  1 1 1
Si   -0.05521576    2.75000000    2.76078815  0.0  1.0  1 1 1
Si   -0.93866797   -1.75000000   -2.87121968  0.0  1.0  1 1 1
Si   -1.04909950   -0.75000000   -1.87733594  0.0  1.0  1 1 1
Si   -0.49694187   -1.25000000   -2.31906205  0.0  1.0  1 1 1
Si   -1.15953102    0.25000000   -0.88345221  0.0  1.0  1 1 1
Si   -0.60737339   -0.25000000   -1.32517831  0.0  1.0  1 1 1
Si   -1.26996255    1.25000000    0.11043153  0.0  1.0  1 1 1
Si   -0.71780492    0.75000000   -0.33129458  0.0  1.0  1 1 1
Si   -1.38039408    2.25000000    1.10431526  0.0  1.0  1 1 1
Si   -0.82823645    1.75000000    0.66258916  0.0  1.0  1 1 1
Si   -0.93866797    2.75000000    1.65647289  0.0  1.0  1 1 1
Si   -1.93255171   -0.75000000   -2.98165120  0.0  1.0  1 1 1
Si   -2.04298323    0.25000000   -1.98776747  0.0  1.0  1 1 1
Si   -1.49082560   -0.25000000   -2.42949357  0.0  1.0  1 1 1
Si   -2.15341476    1.25000000   -0.99388373  0.0  1.0  1 1 1
Si   -1.60125713    0.75000000   -1.43560984  0.0  1.0  1 1 1
Si   -2.26384628    2.25000000    0.00000000  0.0  1.0  1 1 1
Si   -1.71168865    1.75000000   -0.44172610  0.0  1.0  1 1 1
Si   -1.82212018    2.75000000    0.55215763  0.0  1.0  1 1 1
Si   -3.03686697    1.25000000   -2.09819900  0.0  1.0  1 1 1
Si   -2.48470934    0.75000000   -2.53992510  0.0  1.0  1 1 1
Si   -3.14729849    2.25000000   -1.10431526  0.0  1.0  1 1 1
Si   -2.59514086    1.75000000   -1.54604137  0.0  1.0  1 1 1
Si   -2.70557239    2.75000000   -0.55215763  0.0  1.0  1 1 1
Si   -4.03075070    2.25000000   -2.20863052  0.0  1.0  1 1 1
Si   -3.47859307    1.75000000   -2.65035663  0.0  1.0  1 1 1
Si   -3.58902460    2.75000000   -1.65647289  0.0  1.0  1 1 1
Si   -4.47247681    2.75000000   -2.76078815  0.0  1.0  1 1 1
Si    2.48470934   -2.75000000    2.53992510  0.0  1.0  1 1 1
Si    1.60125713   -2.75000000    1.43560984  0.0  1.0  1 1 1
Si    1.49082560   -1.75000000    2.42949357  0.0  1.0  1 1 1
Si    2.04298323   -2.25000000    1.98776747  0.0  1.0  1 1 1
Si    1.93255171   -1.25000000    2.98165120  0.0  1.0  1 1 1
Si    0.71780492   -2.75000000    0.33129458  0.0  1.0  1 1 1
Si    0.60737339   -1.75000000    1.32517831  0.0  1.0  1 1 1
Si    1.15953102   -2.25000000    0.88345221  0.0  1.0  1 1 1
Si    0.49694187   -0.75000000    2.31906205  0.0  1.0  1 1 1
Si    1.04909950   -1.25000000    1.87733594  0.0  1.0  1 1 1
Si    0.93866797   -0.25000000    2.87121968  0.0  1.0  1 1 1
Si   -0.16564729   -2.75000000   -0.77302068  0.0  1.0  1 1 1
Si   -0.27607882   -1.75000000    0.22086305  0.0  1.0  1 1 1
Si    0.27607882   -2.25000000   -0.22086305  0.0  1.0  1 1 1
Si   -0.38651034   -0.75000000    1.21474679  0.0  1.0  1 1 1
Si    0.16564729   -1.25000000    0.77302068  0.0  1.0  1 1 1
Si   -0.49694187    0.25000000    2.20863052  0.0  1.0  1 1 1
Si    0.05521576   -0.25000000    1.76690442  0.0  1.0  1 1 1
Si   -0.05521576    0.75000000    2.76078815  0.0  1.0  1 1 1
Si   -1.04909950   -2.75000000   -1.87733594  0.0  1.0  1 1 1
Si   -1.15953102   -1.75000000   -0.88345221  0.0  1.0  1 1 1
Si   -0.60737339   -2.25000000   -1.32517831  0.0  1.0  1 1 1
Si   -1.26996255   -0.75000000    0.11043153  0.0  1.0  1 1 1
Si   -0.71780492   -1.25000000   -0.33129458  0.0  1.0  1 1 1
Si   -1.38039408    0.25000000    1.10431526  0.0  1.0  1 1 1
Si   -0.82823645   -0.25000000    0.66258916  0.0  1.0  1 1 1
Si   -1.49082560    1.25000000    2.09819900  0.0  1.0  1 1 1
Si   -0.93866797    0.75000000    1.65647289  0.0  1.0  1 1 1
Si   -1.04909950    1.75000000    2.65035663  0.0  1.0  1 1 1
Si   -1.93255171   -2.75000000   -2.98165120  0.0  1.0  1 1 1
Si   -2.04298323   -1.75000000   -1.98776747  0.0  1.0  1 1 1
Si   -1.49082560   -2.25000000   -2.42949357  0.0  1.0  1 1 1
Si   -2.15341476   -0.75000000   -0.99388373  0.0  1.0  1 1 1
Si   -1.60125713   -1.25000000   -1.43560984  0.0  1.0  1 1 1
Si   -2.26384628    0.25000000    0.00000000  0.0  1.0  1 1 1
Si   -1.71168865   -0.25000000   -0.44172610  0.0  1.0  1 1 1
Si   -2.37427781    1.25000000    0.99388373  0.0  1.0  1 1 1
Si   -1.82212018    0.75000000    0.55215763  0.0  1.0  1 1 1
Si   -2.48470934    2.25000000    1.98776747  0.0  1.0  1 1 1
Si   -1.93255171    1.75000000    1.54604137  0.0  1.0  1 1 1
Si   -2.04298323    2.75000000    2.53992510  0.0  1.0  1 1 1
Si   -3.03686697   -0.75000000   -2.09819900  0.0  1.0  1 1 1
Si   -2.48470934   -1.25000000   -2.53992510  0.0  1.0  1 1 1
Si   -3.14729849    0.25000000   -1.10431526  0.0  1.0  1 1 1
Si   -2.59514086   -0.25000000   -1.54604137  0.0  1.0  1 1 1
Si   -3.25773002    1.25000000   -0.11043153  0.0  1.0  1 1 1
Si   -2.70557239    0.75000000   -0.55215763  0.0  1.0  1 1 1
Si   -3.36816155    2.25000000    0.88345221  0.0  1.0  1 1 1
Si   -2.81600391    1.75000000    0.44172610  0.0  1.0  1 1 1
Si   -2.92643544    2.75000000    1.43560984  0.0  1.0  1 1 1
Si   -4.03075070    0.25000000   -2.20863052  0.0  1.0  1 1 1
Si   -3.47859307   -0.25000000   -2.65035663  0.0  1.0  1 1 1
Si   -4.14118223    1.25000000   -1.21474679  0.0  1.0  1 1 1
Si   -3.58902460    0.75000000   -1.65647289  0.0  1.0  1 1 1
Si   -4.25161375    2.25000000   -0.22086305  0.0  1.0  1 1 1
Si   -3.69945612    1.75000000   -0.66258916  0.0  1.0  1 1 1
Si   -3.80988765    2.75000000    0.33129458  0.0  1.0  1 1 1
Si   -4.47247681    0.75000000   -2.76078815  0.0  1.0  1 1 1
Si    0.49694187   -2.75000000    2.31906205  0.0  1.0  1 1 1
Si    0.93866797   -2.25000000    2.87121968  0.0  1.0  1 1 1
Si   -0.38651034   -2.75000000    1.21474679  0.0  1.0  1 1 1
Si   -0.49694187   -1.75000000    2.20863052  0.0  1.0  1 1 1
Si    0.05521576   -2.25000000    1.76690442  0.0  1.0  1 1 1
Si   -0.05521576   -1.25000000    2.76078815  0.0  1.0  1 1 1
Si   -1.26996255   -2.75000000    0.11043153  0.0  1.0  1 1 1
Si   -1.38039408   -1.75000000    1.10431526  0.0  1.0  1 1 1
Si   -0.82823645   -2.25000000    0.66258916  0.0  1.0  1 1 1
Si   -1.49082560   -0.75000000    2.09819900  0.0  1.0  1 1 1
Si   -0.93866797   -1.25000000    1.65647289  0.0  1.0  1 1 1
Si   -1.04909950   -0.25000000    2.65035663  0.0  1.0  1 1 1
Si   -2.15341476   -2.75000000   -0.99388373  0.0  1.0  1 1 1
Si   -2.26384628   -1.75000000    0.00000000  0.0  1.0  1 1 1
Si   -1.71168865   -2.25000000   -0.44172610  0.0  1.0  1 1 1
Si   -2.37427781   -0.75000000    0.99388373  0.0  1.0  1 1 1
Si   -1.82212018   -1.25000000    0.55215763  0.0  1.0  1 1 1
Si   -2.48470934    0.25000000    1.98776747  0.0  1.0  1 1 1
Si   -1.93255171   -0.25000000    1.54604137  0.0  1.0  1 1 1
Si   -2.59514086    1.25000000    2.98165120  0.0  1.0  1 1 1
Si   -2.04298323    0.75000000    2.53992510  0.0  1.0  1 1 1
Si   -3.03686697   -2.75000000   -2.09819900  0.0  1.0  1 1 1
Si   -3.14729849   -1.75000000   -1.10431526  0.0  1.0  1 1 1
Si   -2.59514086   -2.25000000   -1.54604137  0.0  1.0  1 1 1
Si   -3.25773002   -0.75000000   -0.11043153  0.0  1.0  1 1 1
Si   -2.70557239   -1.25000000   -0.55215763  0.0  1.0  1 1 1
Si   -3.36816155    0.25000000    0.88345221  0.0  1.0  1 1 1
Si   -2.81600391   -0.25000000    0.44172610  0.0  1.0  1 1 1
Si   -3.47859307    1.25000000    1.87733594  0.0  1.0  1 1 1
Si   -2.92643544    0.75000000    1.43560984  0.0  1.0  1 1 1
Si   -3.58902460    2.25000000    2.87121968  0.0  1.0  1 1 1
Si   -3.03686697    1.75000000    2.42949357  0.0  1.0  1 1 1
Si   -4.03075070   -1.75000000   -2.20863052  0.0  1.0  1 1 1
Si   -3.47859307   -2.25000000   -2.65035663  0.0  1.0  1 1 1
Si   -4.14118223   -0.75000000   -1.21474679  0.0  1.0  1 1 1
Si   -3.58902460   -1.25000000   -1.65647289  0.0  1.0  1 1 1
Si   -4.25161375    0.25000000   -0.22086305  0.0  1.0  1 1 1
Si   -3.69945612   -0.25000000   -0.66258916  0.0  1.0  1 1 1
Si   -4.36204528    1.25000000    0.77302068  0.0  1.0  1 1 1
Si   -3.80988765    0.75000000    0.33129458  0.0  1.0  1 1 1
Si   -4.47247681    2.25000000    1.76690442  0.0  1.0  1 1 1
Si   -3.92031918    1.75000000    1.32517831  0.0  1.0  1 1 1
Si   -4.03075070    2.75000000    2.31906205  0.0  1.0  1 1 1
Si   -4.47247681   -1.25000000   -2.76078815  0.0  1.0  1 1 1
Si   -1.49082560   -2.75000000    2.09819900  0.0  1.0  1 1 1
Si   -1.04909950   -2.25000000    2.65035663  0.0  1.0  1 1 1
Si   -2.37427781   -2.75000000    0.99388373  0.0  1.0  1 1 1
Si   -2.48470934   -1.75000000    1.98776747  0.0  1.0  1 1 1
Si   -1.93255171   -2.25000000    1.54604137  0.0  1.0  1 1 1
Si   -2.59514086   -0.75000000    2.98165120  0.0  1.0  1 1 1
Si   -2.04298323   -1.25000000    2.53992510  0.0  1.0  1 1 1
Si   -3.25773002   -2.75000000   -0.11043153  0.0  1.0  1 1 1
Si   -3.36816155   -1.75000000    0.88345221  0.0  1.0  1 1 1
Si   -2.81600391   -2.25000000    0.44172610  0.0  1.0  1 1 1
Si   -3.47859307   -0.75000000    1.87733594  0.0  1.0  1 1 1
Si   -2.92643544   -1.25000000    1.43560984  0.0  1.0  1 1 1
Si   -3.58902460    0.25000000    2.87121968  0.0  1.0  1 1 1
Si   -3.03686697   -0.25000000    2.42949357  0.0  1.0  1 1 1
Si   -4.14118223   -2.75000000   -1.21474679  0.0  1.0  1 1 1
Si   -4.25161375   -1.75000000   -0.22086305  0.0  1.0  1 1 1
Si   -3.69945612   -2.25000000   -0.66258916  0.0  1.0  1 1 1
Si   -4.36204528   -0.75000000    0.77302068  0.0  1.0  1 1 1
Si   -3.80988765   -1.25000000    0.33129458  0.0  1.0  1 1 1
Si   -4.47247681    0.25000000    1.76690442  0.0  1.0  1 1 1
Si   -3.92031918   -0.25000000    1.32517831  0.0  1.0  1 1 1
Si   -4.03075070    0.75000000    2.31906205  0.0  1.0  1 1 1
Si   -2.59514086   -2.75000000    2.98165120  0.0  1.0  1 1 1
Si   -3.47859307   -2.75000000    1.87733594  0.0  1.0  1 1 1
Si   -3.58902460   -1.75000000    2.87121968  0.0  1.0  1 1 1
Si   -3.03686697   -2.25000000    2.42949357  0.0  1.0  1 1 1
Si   -4.36204528   -2.75000000    0.77302068  0.0  1.0  1 1 1
Si   -4.47247681   -1.75000000    1.76690442  0.0  1.0  1 1 1
Si   -3.92031918   -2.25000000    1.32517831  0.0  1.0  1 1 1
Si   -4.03075070   -1.25000000    2.31906205  0.0  1.0  1 1 1
Si    4.41726104    2.25000000    3.74226998  0.0  1.0  1 1 1
Si    4.41726104    0.25000000    3.74226998  0.0  1.0  1 1 1
Si    4.52769257    1.25000000    4.73615372  0.0  1.0  1 1 1
Si    3.42337731    1.25000000    3.85270151  0.0  1.0  1 1 1
Si    3.53380883    2.25000000    4.84658524  0.0  1.0  1 1 1
Si    3.97553494    1.75000000    4.29442761  0.0  1.0  1 1 1
Si    4.08596646    2.75000000    5.28831135  0.0  1.0  1 1 1
Si    2.42949357    2.25000000    3.96313303  0.0  1.0  1 1 1
Si    2.98165120    2.75000000    4.40485914  0.0  1.0  1 1 1
Si    1.87733594    2.75000000    3.52140693  0.0  1.0  1 1 1
Si    4.41726104   -1.75000000    3.74226998  0.0  1.0  1 1 1
Si    4.52769257   -0.75000000    4.73615372  0.0  1.0  1 1 1
Si    3.42337731   -0.75000000    3.85270151  0.0  1.0  1 1 1
Si    3.53380883    0.25000000    4.84658524  0.0  1.0  1 1 1
Si    3.97553494   -0.25000000    4.29442761  0.0  1.0  1 1 1
Si    3.64424036    1.25000000    5.84046898  0.0  1.0  1 1 1
Si    4.08596646    0.75000000    5.28831135  0.0  1.0  1 1 1
Si    3.75467189    2.25000000    6.83435271  0.0  1.0  1 1 1
Si    4.19639799    1.75000000    6.28219508  0.0  1.0  1 1 1
Si    4.30682952    2.75000000   -6.72392118  0.0  1.0  1 1 1
Si    2.42949357    0.25000000    3.96313303  0.0  1.0  1 1 1
Si    2.53992510    1.25000000    4.95701677  0.0  1.0  1 1 1
Si    2.98165120    0.75000000    4.40485914  0.0  1.0  1 1 1
Si    2.65035663    2.25000000    5.95090050  0.0  1.0  1 1 1
Si    3.09208273    1.75000000    5.39874287  0.0  1.0  1 1 1
Si    3.20251426    2.75000000    6.39262661  0.0  1.0  1 1 1
Si    1.43560984    1.25000000    4.07356456  0.0  1.0  1 1 1
Si    1.87733594    0.75000000    3.52140693  0.0  1.0  1 1 1
Si    1.54604137    2.25000000    5.06744829  0.0  1.0  1 1 1
Si    1.98776747    1.75000000    4.51529066  0.0  1.0  1 1 1
Si    2.09819900    2.75000000    5.50917440  0.0  1.0  1 1 1
Si    0.44172610    2.25000000    4.18399609  0.0  1.0  1 1 1
Si    0.88345221    1.75000000    3.63183845  0.0  1.0  1 1 1
Si    0.99388373    2.75000000    4.62572219  0.0  1.0  1 1 1
Si   -0.11043153    2.75000000    3.74226998  0.0  1.0  1 1 1
Si    4.52769257   -2.75000000    4.73615372  0.0  1.0  1 1 1
Si    3.42337731   -2.75000000    3.85270151  0.0  1.0  1 1 1
Si    3.53380883   -1.75000000    4.84658524  0.0  1.0  1 1 1
Si    3.97553494   -2.25000000    4.29442761  0.0  1.0  1 1 1
Si    3.64424036   -0.75000000    5.84046898  0.0  1.0  1 1 1
Si    4.08596646   -1.25000000    5.28831135  0.0  1.0  1 1 1
Si    3.75467189    0.25000000    6.83435271  0.0  1.0  1 1 1
Si    4.19639799   -0.25000000    6.28219508  0.0  1.0  1 1 1
Si    3.86510341    1.25000000   -6.17176355  0.0  1.0  1 1 1
Si    4.30682952    0.75000000   -6.72392118  0.0  1.0  1 1 1
Si    3.97553494    2.25000000   -5.17787982  0.0  1.0  1 1 1
Si    4.41726104    1.75000000   -5.73003745  0.0  1.0  1 1 1
Si    4.52769257    2.75000000   -4.73615372  0.0  1.0  1 1 1
Si    2.42949357   -1.75000000    3.96313303  0.0  1.0  1 1 1
Si    2.53992510   -0.75000000    4.95701677  0.0  1.0  1 1 1
Si    2.98165120   -1.25000000    4.40485914  0.0  1.0  1 1 1
Si    2.65035663    0.25000000    5.95090050  0.0  1.0  1 1 1
Si    3.09208273   -0.25000000    5.39874287  0.0  1.0  1 1 1
Si    2.76078815    1.25000000    6.94478424  0.0  1.0  1 1 1
Si    3.20251426    0.75000000    6.39262661  0.0  1.0  1 1 1
Si    2.87121968    2.25000000   -6.06133203  0.0  1.0  1 1 1
Si    3.31294578    1.75000000   -6.61348966  0.0  1.0  1 1 1
Si    3.42337731    2.75000000   -5.61960592  0.0  1.0  1 1 1
Si    1.43560984   -0.75000000    4.07356456  0.0  1.0  1 1 1
Si    1.87733594   -1.25000000    3.52140693  0.0  1.0  1 1 1
Si    1.54604137    0.25000000    5.06744829  0.0  1.0  1 1 1
Si    1.98776747   -0.25000000    4.51529066  0.0  1.0  1 1 1
Si    1.65647289    1.25000000    6.06133203  0.0  1.0  1 1 1
Si    2.09819900    0.75000000    5.50917440  0.0  1.0  1 1 1
Si    1.76690442    2.25000000   -6.94478424  0.0  1.0  1 1 1
Si    2.20863052    1.75000000    6.50305813  0.0  1.0  1 1 1
Si    2.31906205    2.75000000   -6.50305813  0.0  1.0  1 1 1
Si    0.44172610    0.25000000    4.18399609  0.0  1.0  1 1 1
Si    0.88345221   -0.25000000    3.63183845  0.0  1.0  1 1 1
Si    0.55215763    1.25000000    5.17787982  0.0  1.0  1 1 1
Si    0.99388373    0.75000000    4.62572219  0.0  1.0  1 1 1
Si    0.66258916    2.25000000    6.17176355  0.0  1.0  1 1 1
Si    1.10431526    1.75000000    5.61960592  0.0  1.0  1 1 1
Si    1.21474679    2.75000000    6.61348966  0.0  1.0  1 1 1
Si   -0.55215763    1.25000000    4.29442761  0.0  1.0  1 1 1
Si   -0.11043153    0.75000000    3.74226998  0.0  1.0  1 1 1
Si   -0.44172610    2.25000000    5.28831135  0.0  1.0  1 1 1
Si    0.00000000    1.75000000    4.73615372  0.0  1.0  1 1 1
Si    0.11043153    2.75000000    5.73003745  0.0  1.0  1 1 1
Si   -1.54604137    2.25000000    4.40485914  0.0  1.0  1 1 1
Si   -1.10431526    1.75000000    3.85270151  0.0  1.0  1 1 1
Si   -0.99388373    2.75000000    4.84658524  0.0  1.0  1 1 1
Si   -2.65035663    2.25000000    3.52140693  0.0  1.0  1 1 1
Si   -2.09819900    2.75000000    3.96313303  0.0  1.0  1 1 1
Si    3.64424036   -2.75000000    5.84046898  0.0  1.0  1 1 1
Si    3.75467189   -1.75000000    6.83435271  0.0  1.0  1 1 1
Si    4.19639799   -2.25000000    6.28219508  0.0  1.0  1 1 1
Si    3.86510341   -0.75000000   -6.17176355  0.0  1.0  1 1 1
Si    4.30682952   -1.25000000   -6.72392118  0.0  1.0  1 1 1
Si    3.97553494    0.25000000   -5.17787982  0.0  1.0  1 1 1
Si    4.41726104   -0.25000000   -5.73003745  0.0  1.0  1 1 1
Si    4.08596646    1.25000000   -4.18399609  0.0  1.0  1 1 1
Si    4.52769257    0.75000000   -4.73615372  0.0  1.0  1 1 1
Si    2.53992510   -2.75000000    4.95701677  0.0  1.0  1 1 1
Si    2.65035663   -1.75000000    5.95090050  0.0  1.0  1 1 1
Si    3.09208273   -2.25000000    5.39874287  0.0  1.0  1 1 1
Si    2.76078815   -0.75000000    6.94478424  0.0  1.0  1 1 1
Si    3.20251426   -1.25000000    6.39262661  0.0  1.0  1 1 1
Si    2.87121968    0.25000000   -6.06133203  0.0  1.0  1 1 1
Si    3.31294578   -0.25000000   -6.61348966  0.0  1.0  1 1 1
Si    2.98165120    1.25000000   -5.06744829  0.0  1.0  1 1 1
Si    3.42337731    0.75000000   -5.61960592  0.0  1.0  1 1 1
Si    3.09208273    2.25000000   -4.07356456  0.0  1.0  1 1 1
Si    3.53380883    1.75000000   -4.62572219  0.0  1.0  1 1 1
Si    3.64424036    2.75000000   -3.63183845  0.0  1.0  1 1 1
Si    1.43560984   -2.75000000    4.07356456  0.0  1.0  1 1 1
Si    1.54604137   -1.75000000    5.06744829  0.0  1.0  1 1 1
Si    1.98776747   -2.25000000    4.51529066  0.0  1.0  1 1 1
Si    1.65647289   -0.75000000    6.06133203  0.0  1.0  1 1 1
Si    2.09819900   -1.25000000    5.50917440  0.0  1.0  1 1 1
Si    1.76690442    0.25000000   -6.94478424  0.0  1.0  1 1 1
Si    2.20863052   -0.25000000    6.50305813  0.0  1.0  1 1 1
Si    1.87733594    1.25000000   -5.95090050  0.0  1.0  1 1 1
Si    2.31906205    0.75000000   -6.50305813  0.0  1.0  1 1 1
Si    1.98776747    2.25000000   -4.95701677  0.0  1.0  1 1 1
Si    2.42949357    1.75000000   -5.50917440  0.0  1.0  1 1 1
Si    2.53992510    2.75000000   -4.51529066  0.0  1.0  1 1 1
Si    0.44172610   -1.75000000    4.18399609  0.0  1.0  1 1 1
Si    0.88345221   -2.25000000    3.63183845  0.0  1.0  1 1 1
Si    0.55215763   -0.75000000    5.17787982  0.0  1.0  1 1 1
Si    0.99388373   -1.25000000    4.62572219  0.0  1.0  1 1 1
Si    0.66258916    0.25000000    6.17176355  0.0  1.0  1 1 1
Si    1.10431526   -0.25000000    5.61960592  0.0  1.0  1 1 1
Si    0.77302068    1.25000000   -6.83435271  0.0  1.0  1 1 1
Si    1.21474679    0.75000000    6.61348966  0.0  1.0  1 1 1
Si    0.88345221    2.25000000   -5.84046898  0.0  1.0  1 1 1
Si    1.32517831    1.75000000   -6.39262661  0.0  1.0  1 1 1
Si    1.43560984    2.75000000   -5.39874287  0.0  1.0  1 1 1
Si   -0.55215763   -0.75000000    4.29442761  0.0  1.0  1 1 1
Si   -0.11043153   -1.25000000    3.74226998  0.0  1.0  1 1 1
Si   -0.44172610    0.25000000    5.28831135  0.0  1.0  1 1 1
Si    0.00000000   -0.25000000    4.73615372  0.0  1.0  1 1 1
Si   -0.33129458    1.25000000    6.28219508  0.0  1.0  1 1 1
Si    0.11043153    0.75000000    5.73003745  0.0  1.0  1 1 1
Si   -0.22086305    2.25000000   -6.72392118  0.0  1.0  1 1 1
Si    0.22086305    1.75000000    6.72392118  0.0  1.0  1 1 1
Si    0.33129458    2.75000000   -6.28219508  0.0  1.0  1 1 1
Si   -1.54604137    0.25000000    4.40485914  0.0  1.0  1 1 1
Si   -1.10431526   -0.25000000    3.85270151  0.0  1.0  1 1 1
Si   -1.43560984    1.25000000    5.39874287  0.0  1.0  1 1 1
Si   -0.99388373    0.75000000    4.84658524  0.0  1.0  1 1 1
Si   -1.32517831    2.25000000    6.39262661  0.0  1.0  1 1 1
Si   -0.88345221    1.75000000    5.84046898  0.0  1.0  1 1 1
Si   -0.77302068    2.75000000    6.83435271  0.0  1.0  1 1 1
Si   -2.65035663    0.25000000    3.52140693  0.0  1.0  1 1 1
Si   -2.53992510    1.25000000    4.51529066  0.0  1.0  1 1 1
Si   -2.09819900    0.75000000    3.96313303  0.0  1.0  1 1 1
Si   -2.42949357    2.25000000    5.50917440  0.0  1.0  1 1 1
Si   -1.98776747    1.75000000    4.95701677  0.0  1.0  1 1 1
Si   -1.87733594    2.75000000    5.95090050  0.0  1.0  1 1 1